40
1 0 1
2 0 2
2 1 1
3 0 2
3 1 2
3 2 2
4 0 1
4 1 1
4 2 2
4 3 1
5 0 1
5 1 2
5 2 1
5 3 1
5 4 1
6 0 2
6 1 1
6 2 2
6 3 1
6 4 2
6 5 1
7 0 1
7 1 1
7 2 2
7 3 2
7 4 2
7 5 1
7 6 2
8 0 2
8 1 1
8 2 1
8 3 1
8 4 1
8 5 1
8 6 2
8 7 1
9 0 1
9 1 1
9 2 1
9 3 1
9 4 2
9 5 2
9 6 2
9 7 2
9 8 2
10 0 2
10 1 1
10 2 2
10 3 2
10 4 1
10 5 1
10 6 1
10 7 1
10 8 2
10 9 2
11 0 1
11 1 1
11 2 2
11 3 2
11 4 1
11 5 1
11 6 1
11 7 2
11 8 1
11 9 1
11 10 2
12 0 2
12 1 2
12 2 1
12 3 2
12 4 2
12 5 2
12 6 1
12 7 1
12 8 2
12 9 1
12 10 1
12 11 2
13 0 1
13 1 2
13 2 1
13 3 1
13 4 1
13 5 2
13 6 1
13 7 2
13 8 1
13 9 2
13 10 1
13 11 1
13 12 2
14 0 2
14 1 2
14 2 2
14 3 1
14 4 1
14 5 2
14 6 2
14 7 1
14 8 2
14 9 2
14 10 2
14 11 1
14 12 2
14 13 1
15 0 2
15 1 1
15 2 2
15 3 2
15 4 2
15 5 2
15 6 2
15 7 2
15 8 2
15 9 1
15 10 1
15 11 2
15 12 2
15 13 2
15 14 2
16 0 2
16 1 2
16 2 2
16 3 2
16 4 1
16 5 1
16 6 2
16 7 2
16 8 1
16 9 1
16 10 1
16 11 1
16 12 1
16 13 1
16 14 1
16 15 1
17 0 2
17 1 1
17 2 2
17 3 1
17 4 2
17 5 2
17 6 2
17 7 2
17 8 1
17 9 1
17 10 1
17 11 2
17 12 2
17 13 1
17 14 1
17 15 1
17 16 2
18 0 1
18 1 1
18 2 1
18 3 2
18 4 1
18 5 1
18 6 2
18 7 1
18 8 2
18 9 2
18 10 1
18 11 1
18 12 2
18 13 2
18 14 1
18 15 1
18 16 2
18 17 1
19 0 2
19 1 1
19 2 2
19 3 2
19 4 1
19 5 1
19 6 1
19 7 1
19 8 1
19 9 1
19 10 2
19 11 2
19 12 1
19 13 2
19 14 1
19 15 1
19 16 2
19 17 2
19 18 2
20 0 2
20 1 2
20 2 2
20 3 1
20 4 1
20 5 2
20 6 1
20 7 2
20 8 2
20 9 2
20 10 1
20 11 1
20 12 1
20 13 1
20 14 1
20 15 1
20 16 2
20 17 2
20 18 1
20 19 2
21 0 1
21 1 1
21 2 1
21 3 2
21 4 1
21 5 2
21 6 1
21 7 2
21 8 1
21 9 1
21 10 1
21 11 2
21 12 2
21 13 2
21 14 2
21 15 2
21 16 1
21 17 2
21 18 1
21 19 1
21 20 2
22 0 1
22 1 2
22 2 2
22 3 1
22 4 1
22 5 1
22 6 1
22 7 2
22 8 1
22 9 1
22 10 2
22 11 2
22 12 1
22 13 1
22 14 1
22 15 2
22 16 2
22 17 2
22 18 1
22 19 1
22 20 2
22 21 1
23 0 1
23 1 1
23 2 2
23 3 2
23 4 1
23 5 2
23 6 2
23 7 1
23 8 1
23 9 1
23 10 1
23 11 1
23 12 1
23 13 1
23 14 2
23 15 1
23 16 2
23 17 1
23 18 2
23 19 2
23 20 1
23 21 2
23 22 1
24 0 2
24 1 1
24 2 1
24 3 2
24 4 2
24 5 2
24 6 2
24 7 1
24 8 2
24 9 1
24 10 1
24 11 1
24 12 2
24 13 2
24 14 2
24 15 1
24 16 1
24 17 2
24 18 1
24 19 2
24 20 2
24 21 2
24 22 2
24 23 2
25 0 1
25 1 1
25 2 2
25 3 1
25 4 2
25 5 2
25 6 2
25 7 1
25 8 2
25 9 1
25 10 2
25 11 1
25 12 2
25 13 2
25 14 1
25 15 2
25 16 2
25 17 1
25 18 1
25 19 2
25 20 2
25 21 1
25 22 2
25 23 1
25 24 1
26 0 2
26 1 1
26 2 2
26 3 1
26 4 2
26 5 1
26 6 2
26 7 2
26 8 2
26 9 2
26 10 1
26 11 2
26 12 1
26 13 2
26 14 2
26 15 1
26 16 2
26 17 2
26 18 1
26 19 2
26 20 1
26 21 2
26 22 1
26 23 1
26 24 2
26 25 1
27 0 2
27 1 1
27 2 1
27 3 2
27 4 1
27 5 2
27 6 1
27 7 2
27 8 1
27 9 2
27 10 1
27 11 2
27 12 1
27 13 1
27 14 2
27 15 2
27 16 1
27 17 1
27 18 2
27 19 2
27 20 2
27 21 1
27 22 2
27 23 2
27 24 1
27 25 2
27 26 1
28 0 2
28 1 2
28 2 1
28 3 1
28 4 1
28 5 1
28 6 1
28 7 1
28 8 2
28 9 1
28 10 1
28 11 1
28 12 1
28 13 1
28 14 1
28 15 2
28 16 1
28 17 1
28 18 1
28 19 2
28 20 1
28 21 1
28 22 1
28 23 2
28 24 2
28 25 1
28 26 1
28 27 2
29 0 1
29 1 1
29 2 1
29 3 2
29 4 1
29 5 1
29 6 2
29 7 2
29 8 2
29 9 2
29 10 2
29 11 2
29 12 2
29 13 1
29 14 2
29 15 1
29 16 2
29 17 1
29 18 2
29 19 1
29 20 1
29 21 1
29 22 2
29 23 1
29 24 1
29 25 1
29 26 1
29 27 1
29 28 1
30 0 1
30 1 2
30 2 2
30 3 1
30 4 1
30 5 1
30 6 1
30 7 2
30 8 2
30 9 2
30 10 1
30 11 2
30 12 1
30 13 2
30 14 1
30 15 2
30 16 1
30 17 2
30 18 2
30 19 2
30 20 1
30 21 1
30 22 2
30 23 2
30 24 1
30 25 2
30 26 1
30 27 1
30 28 1
30 29 1
31 0 2
31 1 2
31 2 2
31 3 1
31 4 1
31 5 1
31 6 2
31 7 1
31 8 1
31 9 2
31 10 2
31 11 1
31 12 2
31 13 1
31 14 1
31 15 2
31 16 2
31 17 2
31 18 2
31 19 1
31 20 2
31 21 2
31 22 1
31 23 2
31 24 1
31 25 2
31 26 1
31 27 2
31 28 2
31 29 1
31 30 1
32 0 1
32 1 1
32 2 2
32 3 1
32 4 2
32 5 1
32 6 2
32 7 2
32 8 2
32 9 1
32 10 1
32 11 1
32 12 2
32 13 2
32 14 1
32 15 2
32 16 2
32 17 1
32 18 1
32 19 1
32 20 1
32 21 1
32 22 1
32 23 1
32 24 2
32 25 2
32 26 1
32 27 1
32 28 1
32 29 2
32 30 2
32 31 1
33 0 1
33 1 2
33 2 2
33 3 2
33 4 1
33 5 1
33 6 2
33 7 2
33 8 1
33 9 2
33 10 2
33 11 1
33 12 2
33 13 1
33 14 2
33 15 2
33 16 1
33 17 2
33 18 1
33 19 1
33 20 1
33 21 2
33 22 2
33 23 2
33 24 2
33 25 2
33 26 2
33 27 1
33 28 1
33 29 1
33 30 2
33 31 1
33 32 2
34 0 1
34 1 2
34 2 1
34 3 2
34 4 1
34 5 1
34 6 2
34 7 1
34 8 2
34 9 1
34 10 1
34 11 2
34 12 1
34 13 1
34 14 2
34 15 2
34 16 2
34 17 2
34 18 2
34 19 1
34 20 1
34 21 1
34 22 1
34 23 1
34 24 2
34 25 2
34 26 2
34 27 1
34 28 2
34 29 1
34 30 2
34 31 2
34 32 2
34 33 2
35 0 2
35 1 1
35 2 1
35 3 1
35 4 1
35 5 1
35 6 2
35 7 1
35 8 1
35 9 1
35 10 2
35 11 1
35 12 1
35 13 2
35 14 1
35 15 1
35 16 2
35 17 2
35 18 1
35 19 2
35 20 2
35 21 2
35 22 1
35 23 2
35 24 2
35 25 2
35 26 1
35 27 2
35 28 2
35 29 1
35 30 1
35 31 1
35 32 2
35 33 1
35 34 2
36 0 2
36 1 1
36 2 2
36 3 1
36 4 1
36 5 2
36 6 1
36 7 2
36 8 1
36 9 2
36 10 2
36 11 2
36 12 2
36 13 2
36 14 2
36 15 2
36 16 2
36 17 1
36 18 1
36 19 2
36 20 1
36 21 1
36 22 2
36 23 1
36 24 2
36 25 2
36 26 2
36 27 1
36 28 1
36 29 1
36 30 1
36 31 1
36 32 1
36 33 1
36 34 2
36 35 1
37 0 1
37 1 2
37 2 2
37 3 2
37 4 1
37 5 1
37 6 1
37 7 1
37 8 1
37 9 1
37 10 2
37 11 1
37 12 1
37 13 1
37 14 2
37 15 2
37 16 1
37 17 2
37 18 2
37 19 2
37 20 1
37 21 2
37 22 1
37 23 2
37 24 1
37 25 1
37 26 2
37 27 1
37 28 2
37 29 1
37 30 2
37 31 2
37 32 2
37 33 2
37 34 1
37 35 1
37 36 2
38 0 1
38 1 2
38 2 2
38 3 1
38 4 2
38 5 1
38 6 1
38 7 1
38 8 1
38 9 2
38 10 2
38 11 2
38 12 2
38 13 2
38 14 1
38 15 1
38 16 2
38 17 1
38 18 2
38 19 2
38 20 2
38 21 1
38 22 1
38 23 1
38 24 1
38 25 2
38 26 2
38 27 1
38 28 1
38 29 1
38 30 2
38 31 2
38 32 1
38 33 1
38 34 1
38 35 2
38 36 2
38 37 2
39 0 1
39 1 1
39 2 2
39 3 2
39 4 1
39 5 1
39 6 1
39 7 2
39 8 1
39 9 2
39 10 2
39 11 2
39 12 2
39 13 1
39 14 1
39 15 2
39 16 2
39 17 1
39 18 2
39 19 1
39 20 1
39 21 1
39 22 2
39 23 1
39 24 1
39 25 2
39 26 2
39 27 2
39 28 1
39 29 1
39 30 1
39 31 1
39 32 1
39 33 1
39 34 2
39 35 1
39 36 2
39 37 2
39 38 1
